WARNING: for repeatability, setting FPU to use double precision
============================[ Problem Statistics ]=============================
|                                                                             |
|  Number of variables:            50                                         |
|  Number of clauses:             218                                         |
|  Parse time:                   0.00 s                                       |
|                                                                             |
============================[ Search Statistics ]==============================
| Conflicts |          ORIGINAL         |          LEARNT          | Progress |
|           |    Vars  Clauses Literals |    Limit  Clauses Lit/Cl |          |
===============================================================================
===============================================================================
restarts              : 1
conflicts             : 12             (8837 /sec)
decisions             : 24             (0.00 % random) (17673 /sec)
propagations          : 199            (146539 /sec)
conflict literals     : 42             (10.64 % deleted)
Memory used           : 20.00 MB
CPU time              : 0.001358 s

SATISFIABLE
